tsp_instances/TSP50/instance101.tsp
NODE_COORD_SECTION
0 25 167
1 17 33
2 96 184
3 124 34
4 41 85
5 61 146
6 94 29
7 73 55
8 138 198
9 48 22
10 127 193
11 177 91
12 147 101
13 33 51
14 185 135
15 90 129
16 196 147
17 101 41
18 168 132
19 195 79
20 160 188
21 49 26
22 94 53
23 34 125
24 88 14
25 121 124
26 171 78
27 6 120
28 111 171
29 126 192
30 113 181
31 90 38
32 65 155
33 70 76
34 2 147
35 51 195
36 178 122
37 177 131
38 52 62
39 137 175
40 129 134
41 187 121
42 144 92
43 112 130
44 54 179
45 72 51
46 47 191
47 11 28
48 115 59
49 112 22
