tsp_instances/TSP50/instance101.opt.tour
TOUR_SECTION
1
35
28
24
5
34
39
14
2
48
10
22
46
8
23
18
32
7
25
50
4
49
43
13
27
20
12
42
37
19
38
15
17
21
40
9
11
30
31
3
29
41
26
44
16
6
33
45
36
47
-1